jobs  (incl. supersource/sink ):	52
RESOURCES
- renewable                 : 2 R
- nonrenewable              : 2 N
- doubly constrained        : 0 D
************************************************************************
PRECEDENCE RELATIONS:
jobnr.    #modes  #successors   successors
1	1	8		2 3 4 6 7 8 9 10 
2	9	6		26 23 21 20 18 5 
3	9	7		31 25 22 20 19 16 14 
4	9	8		51 31 30 29 25 19 18 16 
5	9	6		31 30 29 22 17 11 
6	9	8		51 33 28 25 24 22 21 13 
7	9	7		51 31 30 29 22 16 15 
8	9	6		31 28 25 22 21 12 
9	9	7		33 30 28 25 21 19 18 
10	9	4		51 37 27 16 
11	9	2		51 16 
12	9	7		49 38 37 34 33 30 24 
13	9	7		46 38 37 34 31 30 27 
14	9	9		50 47 46 37 34 33 32 30 29 
15	9	8		49 48 47 36 34 33 32 25 
16	9	6		38 36 34 33 28 24 
17	9	5		47 36 34 28 25 
18	9	3		50 48 22 
19	9	7		50 48 46 37 36 34 27 
20	9	7		51 47 46 38 33 32 30 
21	9	6		50 47 46 36 32 29 
22	9	5		46 37 36 34 27 
23	9	5		51 46 43 38 27 
24	9	7		48 47 46 44 43 42 32 
25	9	9		46 45 44 43 42 40 39 38 37 
26	9	4		47 45 35 30 
27	9	5		49 47 44 42 32 
28	9	7		49 48 46 44 43 42 35 
29	9	8		49 48 45 44 43 42 41 39 
30	9	6		48 43 42 40 39 36 
31	9	4		44 43 36 35 
32	9	3		45 41 35 
33	9	3		44 42 35 
34	9	4		43 42 40 39 
35	9	2		40 39 
36	9	1		41 
37	9	1		41 
38	9	1		50 
39	9	1		52 
40	9	1		52 
41	9	1		52 
42	9	1		52 
43	9	1		52 
44	9	1		52 
45	9	1		52 
46	9	1		52 
47	9	1		52 
48	9	1		52 
49	9	1		52 
50	9	1		52 
51	9	1		52 
52	1	0		
************************************************************************
REQUESTS/DURATIONS
jobnr.	mode	dur	R1	R2	N1	N2	
------------------------------------------------------------------------
1	1	0	0	0	0	0	
2	1	8	4	5	25	12	
	2	9	3	4	24	10	
	3	10	3	4	22	9	
	4	12	3	4	22	8	
	5	15	2	4	19	8	
	6	18	2	4	18	7	
	7	22	2	4	17	6	
	8	27	2	4	16	4	
	9	30	2	4	15	4	
3	1	9	5	5	29	18	
	2	10	4	4	28	16	
	3	12	4	3	28	14	
	4	13	4	3	28	12	
	5	14	3	2	28	12	
	6	15	3	2	28	11	
	7	18	2	1	28	10	
	8	23	2	1	28	8	
	9	28	2	1	28	6	
4	1	1	5	4	23	17	
	2	1	4	3	23	19	
	3	2	4	3	23	18	
	4	3	4	3	23	17	
	5	5	3	2	23	17	
	6	12	3	2	23	16	
	7	18	3	2	23	15	
	8	24	2	2	23	16	
	9	26	2	2	23	15	
5	1	1	5	3	26	27	
	2	4	4	2	25	25	
	3	7	4	2	25	24	
	4	11	4	2	24	23	
	5	18	3	2	23	22	
	6	25	3	2	23	21	
	7	26	3	2	23	20	
	8	27	3	2	21	19	
	9	30	3	2	21	18	
6	1	7	4	5	28	29	
	2	8	4	4	26	27	
	3	9	4	3	22	27	
	4	10	4	3	22	25	
	5	12	3	3	18	25	
	6	13	3	2	17	23	
	7	14	3	2	16	23	
	8	19	3	1	13	22	
	9	23	3	1	10	20	
7	1	6	2	4	21	14	
	2	7	2	3	21	12	
	3	8	2	3	19	12	
	4	9	2	3	19	11	
	5	13	2	3	18	11	
	6	16	2	2	16	10	
	7	18	2	2	16	9	
	8	23	2	2	14	9	
	9	30	2	2	14	8	
8	1	1	5	4	27	23	
	2	2	4	3	25	21	
	3	4	4	3	22	19	
	4	7	4	3	20	18	
	5	8	4	3	20	16	
	6	12	3	3	18	16	
	7	19	3	3	15	14	
	8	22	3	3	14	11	
	9	25	3	3	13	11	
9	1	3	2	5	9	22	
	2	9	1	5	8	22	
	3	10	1	5	7	22	
	4	18	1	5	6	22	
	5	20	1	5	5	22	
	6	23	1	5	4	22	
	7	24	1	5	3	23	
	8	25	1	5	3	22	
	9	29	1	5	2	22	
10	1	3	1	5	30	23	
	2	7	1	4	28	20	
	3	9	1	4	28	18	
	4	15	1	3	26	18	
	5	16	1	3	25	16	
	6	19	1	3	25	13	
	7	20	1	2	24	12	
	8	25	1	2	22	10	
	9	30	1	2	22	9	
11	1	3	5	1	8	26	
	2	5	5	1	7	25	
	3	15	5	1	7	22	
	4	18	5	1	6	21	
	5	22	5	1	6	17	
	6	23	5	1	6	16	
	7	24	5	1	6	15	
	8	26	5	1	5	13	
	9	28	5	1	5	11	
12	1	1	2	4	27	26	
	2	2	2	3	26	23	
	3	3	2	3	23	20	
	4	14	2	3	22	15	
	5	17	2	2	21	15	
	6	24	2	2	17	12	
	7	26	2	2	17	10	
	8	29	2	1	13	7	
	9	30	2	1	13	3	
13	1	1	4	2	24	13	
	2	11	4	2	21	12	
	3	13	4	2	19	12	
	4	15	3	2	19	11	
	5	16	3	2	16	11	
	6	19	3	2	16	10	
	7	27	2	2	14	11	
	8	28	2	2	11	10	
	9	29	2	2	10	10	
14	1	4	5	4	28	29	
	2	5	4	4	27	28	
	3	7	4	4	24	28	
	4	9	3	4	21	28	
	5	12	2	3	18	28	
	6	13	2	3	15	28	
	7	19	1	3	14	28	
	8	20	1	3	9	28	
	9	26	1	3	9	27	
15	1	3	5	5	28	27	
	2	6	4	4	27	26	
	3	11	4	4	25	26	
	4	12	3	4	24	24	
	5	13	3	3	24	24	
	6	16	2	3	23	22	
	7	21	2	3	21	21	
	8	27	1	3	21	20	
	9	29	1	3	20	19	
16	1	7	3	5	20	28	
	2	9	2	4	19	26	
	3	10	2	4	17	24	
	4	17	2	4	17	23	
	5	18	1	3	14	21	
	6	19	1	3	14	20	
	7	25	1	2	13	18	
	8	26	1	2	11	16	
	9	27	1	2	10	14	
17	1	3	3	4	25	26	
	2	4	3	3	24	25	
	3	21	3	3	19	24	
	4	22	3	3	18	23	
	5	23	3	2	14	23	
	6	24	3	2	14	22	
	7	26	3	2	12	22	
	8	27	3	2	7	21	
	9	28	3	2	6	21	
18	1	6	5	2	18	24	
	2	8	4	2	18	22	
	3	11	4	2	16	22	
	4	17	3	2	15	22	
	5	23	3	2	14	21	
	6	25	3	2	13	20	
	7	26	2	2	13	20	
	8	28	2	2	12	20	
	9	30	2	2	10	19	
19	1	3	4	4	18	20	
	2	7	4	4	18	18	
	3	12	4	4	18	17	
	4	14	4	4	18	16	
	5	15	3	4	18	15	
	6	22	3	4	17	14	
	7	26	3	4	17	13	
	8	29	2	4	17	13	
	9	30	2	4	17	12	
20	1	2	5	4	18	18	
	2	3	4	4	18	18	
	3	4	4	4	16	14	
	4	5	4	4	13	14	
	5	6	4	4	13	11	
	6	9	4	4	11	9	
	7	19	4	4	9	6	
	8	22	4	4	6	4	
	9	30	4	4	6	2	
21	1	2	3	2	18	18	
	2	5	3	2	16	18	
	3	8	3	2	12	15	
	4	9	3	2	12	14	
	5	12	2	2	9	11	
	6	13	2	2	7	9	
	7	14	1	2	7	6	
	8	26	1	2	3	4	
	9	28	1	2	2	2	
22	1	3	2	1	20	11	
	2	4	1	1	16	11	
	3	5	1	1	16	10	
	4	9	1	1	13	10	
	5	11	1	1	12	9	
	6	16	1	1	9	9	
	7	20	1	1	6	9	
	8	21	1	1	5	8	
	9	28	1	1	3	8	
23	1	1	2	2	9	29	
	2	5	2	2	9	27	
	3	7	2	2	8	27	
	4	8	2	2	7	26	
	5	13	2	1	5	26	
	6	21	2	1	4	25	
	7	24	2	1	4	24	
	8	25	2	1	3	24	
	9	30	2	1	2	23	
24	1	2	4	4	6	22	
	2	4	3	3	5	21	
	3	12	3	3	5	20	
	4	13	3	3	5	18	
	5	24	2	3	4	17	
	6	25	2	2	4	17	
	7	26	2	2	4	15	
	8	27	1	2	3	15	
	9	28	1	2	3	14	
25	1	6	5	3	22	28	
	2	13	4	3	20	24	
	3	14	4	3	18	22	
	4	15	4	3	16	22	
	5	17	4	3	13	18	
	6	18	3	3	11	16	
	7	19	3	3	11	14	
	8	20	3	3	7	14	
	9	21	3	3	6	11	
26	1	2	4	3	28	23	
	2	6	3	3	25	20	
	3	11	3	3	19	18	
	4	12	3	3	17	18	
	5	13	2	3	16	15	
	6	20	2	3	11	13	
	7	22	2	3	10	11	
	8	24	2	3	5	11	
	9	28	2	3	2	9	
27	1	6	2	4	17	25	
	2	9	2	4	16	23	
	3	10	2	3	16	23	
	4	11	2	3	16	22	
	5	17	2	2	16	22	
	6	19	1	2	16	21	
	7	23	1	1	16	21	
	8	24	1	1	16	19	
	9	25	1	1	16	18	
28	1	1	5	4	24	13	
	2	2	5	3	23	12	
	3	6	5	3	22	12	
	4	9	5	3	22	11	
	5	15	5	2	21	9	
	6	16	5	2	20	9	
	7	17	5	2	20	8	
	8	18	5	1	20	7	
	9	21	5	1	19	6	
29	1	1	4	5	17	21	
	2	5	3	4	14	20	
	3	7	3	4	13	20	
	4	8	2	3	12	20	
	5	10	2	2	9	19	
	6	13	2	2	9	18	
	7	22	2	2	7	19	
	8	24	1	1	4	19	
	9	25	1	1	2	19	
30	1	2	4	2	14	27	
	2	15	4	2	14	24	
	3	17	4	2	14	23	
	4	21	4	2	14	22	
	5	22	4	2	14	20	
	6	26	4	2	14	19	
	7	27	4	2	14	18	
	8	28	4	2	14	15	
	9	30	4	2	14	14	
31	1	4	4	3	24	17	
	2	5	4	3	22	15	
	3	8	4	3	22	13	
	4	9	4	3	22	10	
	5	12	4	3	21	8	
	6	15	3	3	20	8	
	7	17	3	3	20	5	
	8	25	3	3	20	4	
	9	28	3	3	19	2	
32	1	1	4	4	29	2	
	2	3	4	4	27	1	
	3	4	4	4	25	1	
	4	15	3	4	21	1	
	5	16	3	4	18	2	
	6	27	3	4	18	1	
	7	28	3	4	16	1	
	8	29	2	4	11	1	
	9	30	2	4	10	1	
33	1	3	1	4	27	21	
	2	4	1	3	25	20	
	3	6	1	3	24	18	
	4	8	1	2	21	17	
	5	10	1	2	20	16	
	6	11	1	2	20	15	
	7	15	1	1	19	15	
	8	21	1	1	16	13	
	9	23	1	1	15	13	
34	1	7	5	5	8	18	
	2	11	5	5	7	18	
	3	15	5	5	7	17	
	4	16	5	5	7	16	
	5	17	5	5	7	14	
	6	22	5	5	7	13	
	7	24	5	5	7	12	
	8	25	5	5	7	11	
	9	27	5	5	7	10	
35	1	2	1	5	25	22	
	2	3	1	4	23	20	
	3	7	1	4	23	19	
	4	8	1	3	22	18	
	5	13	1	3	21	15	
	6	14	1	2	21	12	
	7	16	1	1	20	10	
	8	22	1	1	19	9	
	9	27	1	1	19	6	
36	1	3	1	4	16	27	
	2	4	1	4	14	27	
	3	13	1	4	14	24	
	4	15	1	3	13	23	
	5	18	1	3	10	21	
	6	20	1	2	10	17	
	7	21	1	1	7	15	
	8	22	1	1	6	13	
	9	24	1	1	4	12	
37	1	1	3	3	14	30	
	2	10	3	3	14	29	
	3	11	3	3	13	29	
	4	15	3	3	11	29	
	5	18	3	3	10	29	
	6	26	3	2	10	29	
	7	27	3	2	9	29	
	8	28	3	2	8	29	
	9	29	3	2	7	29	
38	1	3	3	2	20	25	
	2	4	3	2	16	22	
	3	5	3	2	15	22	
	4	7	3	2	13	20	
	5	15	3	2	9	19	
	6	18	3	2	7	17	
	7	21	3	2	7	14	
	8	25	3	2	4	13	
	9	29	3	2	2	13	
39	1	3	3	4	26	17	
	2	5	3	4	24	15	
	3	7	3	4	20	14	
	4	11	3	4	18	12	
	5	13	3	4	16	12	
	6	14	3	4	13	9	
	7	22	3	4	11	8	
	8	25	3	4	8	5	
	9	30	3	4	6	4	
40	1	2	4	3	26	28	
	2	4	4	2	25	26	
	3	10	4	2	21	26	
	4	12	4	2	20	25	
	5	19	4	2	17	24	
	6	20	4	2	15	22	
	7	21	4	2	12	22	
	8	22	4	2	8	21	
	9	28	4	2	8	20	
41	1	3	3	4	4	17	
	2	8	3	4	4	14	
	3	9	3	4	4	13	
	4	10	3	4	4	12	
	5	11	2	4	4	12	
	6	12	2	4	3	9	
	7	17	2	4	3	8	
	8	25	2	4	3	7	
	9	26	2	4	3	6	
42	1	8	3	4	8	21	
	2	9	3	4	7	21	
	3	10	3	4	7	20	
	4	11	3	4	7	19	
	5	12	3	4	7	18	
	6	17	3	4	7	17	
	7	18	3	4	7	16	
	8	19	3	4	7	15	
	9	30	3	4	7	14	
43	1	5	4	2	24	11	
	2	6	4	2	23	10	
	3	7	4	2	23	9	
	4	12	4	2	22	9	
	5	14	4	2	22	8	
	6	16	4	2	22	7	
	7	17	4	2	21	6	
	8	18	4	2	21	5	
	9	28	4	2	21	4	
44	1	7	2	5	26	24	
	2	13	2	4	23	24	
	3	20	2	4	22	24	
	4	21	2	3	22	23	
	5	24	1	3	21	23	
	6	25	1	3	18	22	
	7	26	1	2	17	21	
	8	27	1	2	16	21	
	9	29	1	2	15	21	
45	1	3	4	4	23	14	
	2	4	4	4	21	13	
	3	5	3	4	21	13	
	4	7	3	4	19	13	
	5	25	2	4	15	13	
	6	26	2	4	14	13	
	7	27	1	4	13	13	
	8	28	1	4	10	13	
	9	29	1	4	9	13	
46	1	2	5	3	13	24	
	2	10	4	3	13	24	
	3	12	4	3	13	23	
	4	17	3	3	12	23	
	5	18	3	3	12	22	
	6	19	3	3	11	22	
	7	24	3	3	11	21	
	8	25	2	3	10	21	
	9	27	2	3	10	20	
47	1	4	5	4	19	28	
	2	6	4	4	18	28	
	3	7	3	4	18	27	
	4	14	3	4	17	25	
	5	16	2	4	17	25	
	6	18	2	4	17	24	
	7	19	2	4	16	23	
	8	22	1	4	15	23	
	9	23	1	4	15	22	
48	1	7	5	2	8	20	
	2	8	5	1	8	20	
	3	12	5	1	8	19	
	4	13	5	1	8	18	
	5	14	5	1	7	20	
	6	22	5	1	7	19	
	7	26	5	1	7	18	
	8	27	5	1	7	17	
	9	29	5	1	7	16	
49	1	4	3	4	22	30	
	2	5	2	4	19	24	
	3	12	2	4	17	24	
	4	17	2	4	17	21	
	5	19	2	4	15	16	
	6	21	1	3	12	13	
	7	22	1	3	12	10	
	8	23	1	3	8	8	
	9	25	1	3	7	4	
50	1	2	5	3	27	17	
	2	9	5	3	27	16	
	3	11	5	3	25	16	
	4	12	5	3	22	15	
	5	19	5	3	20	15	
	6	21	5	3	20	14	
	7	23	5	3	17	15	
	8	26	5	3	17	14	
	9	30	5	3	14	14	
51	1	4	2	2	12	16	
	2	9	1	2	11	13	
	3	10	1	2	10	13	
	4	19	1	2	10	11	
	5	20	1	1	9	9	
	6	21	1	1	9	7	
	7	22	1	1	8	6	
	8	25	1	1	7	4	
	9	29	1	1	7	3	
52	1	0	0	0	0	0	
************************************************************************

 RESOURCE AVAILABILITIES 
	R 1	R 2	N 1	N 2
	29	29	889	959

************************************************************************
